(set-info :source |printed by MathSAT|)
(declare-fun |!{$(in_main#0)<N>}| () Int)
(declare-fun |!{$(in_main#0)<N>}.next| () Int)
(declare-fun |!{$(in_main#0)<i>}| () Int)
(declare-fun |!{$(in_main#0)<i>}.next| () Int)
(declare-fun |!{$(in_main#0)<j>}| () Int)
(declare-fun |!{$(in_main#0)<j>}.next| () Int)
(declare-fun |!{$(in_main#0)<k>}| () Int)
(declare-fun |!{$(in_main#0)<k>}.next| () Int)
(declare-fun |!{$(in_main#0)<l>}| () Int)
(declare-fun |!{$(in_main#0)<l>}.next| () Int)
(declare-fun |!{$(in_main#0)<a.1>}| () (Array Int Int))
(declare-fun |!{$(in_main#0)<a.1>}.next| () (Array Int Int))
(declare-fun |!{$(in_main#0)<$(in___VERIFIER_nondet_int#0)<h#<__VERIFIER_nondet_int.return>>>}| () Int)
(declare-fun |!{$(in_main#0)<$(in___VERIFIER_nondet_int#2)<h#<__VERIFIER_nondet_int.return>>>}| () Int)
(declare-fun !pc () Int)
(declare-fun !pc.next () Int)
(declare-fun |%{$(in_main#0)<l>}#1| () Int)
(declare-fun |%{$(in_main#0)<a.1>}#1| () (Array Int Int))
(define-fun .def_35 () Int (! !pc :next !pc.next))
(define-fun .def_38 () Bool (! (= .def_35 2) :init true))
(define-fun .def_164 () Bool (= .def_35 44))
(define-fun .def_118 () Bool (= !pc.next 77))
(define-fun .def_167 () Bool (and .def_118 .def_164))
(define-fun .def_160 () Bool (= |!{$(in_main#0)<l>}.next| 1))
(define-fun .def_10 () Int (! |!{$(in_main#0)<i>}| :next |!{$(in_main#0)<i>}.next|))
(define-fun .def_84 () Bool (= .def_10 |!{$(in_main#0)<i>}.next|))
(define-fun .def_8 () Int (! |!{$(in_main#0)<N>}| :next |!{$(in_main#0)<N>}.next|))
(define-fun .def_82 () Bool (= .def_8 |!{$(in_main#0)<N>}.next|))
(define-fun .def_95 () Bool (and .def_82 .def_84))
(define-fun .def_12 () Int (! |!{$(in_main#0)<j>}| :next |!{$(in_main#0)<j>}.next|))
(define-fun .def_86 () Bool (= .def_12 |!{$(in_main#0)<j>}.next|))
(define-fun .def_96 () Bool (and .def_86 .def_95))
(define-fun .def_14 () Int (! |!{$(in_main#0)<k>}| :next |!{$(in_main#0)<k>}.next|))
(define-fun .def_88 () Bool (= .def_14 |!{$(in_main#0)<k>}.next|))
(define-fun .def_97 () Bool (and .def_88 .def_96))
(define-fun .def_161 () Bool (and .def_97 .def_160))
(define-fun .def_18 () (Array Int Int) (! |!{$(in_main#0)<a.1>}| :next |!{$(in_main#0)<a.1>}.next|))
(define-fun .def_92 () Bool (= .def_18 |!{$(in_main#0)<a.1>}.next|))
(define-fun .def_162 () Bool (and .def_92 .def_161))
(define-fun .def_131 () Bool (= |!{$(in_main#0)<$(in___VERIFIER_nondet_int#2)<h#<__VERIFIER_nondet_int.return>>>}| 0))
(define-fun .def_132 () Bool (not .def_131))
(define-fun .def_129 () Bool (<= .def_8 .def_10))
(define-fun .def_130 () Bool (not .def_129))
(define-fun .def_139 () Bool (and .def_130 .def_132))
(define-fun .def_140 () Bool (or .def_129 .def_139))
(define-fun .def_163 () Bool (and .def_140 .def_162))
(define-fun .def_168 () Bool (and .def_163 .def_167))
(define-fun .def_69 () Bool (= !pc.next 44))
(define-fun .def_165 () Bool (and .def_69 .def_164))
(define-fun .def_133 () (Array Int Int) (store .def_18 .def_10 .def_12))
(define-fun .def_156 () Bool (= |!{$(in_main#0)<a.1>}.next| .def_133))
(define-fun .def_150 () Int (* (- 1) .def_14))
(define-fun .def_151 () Int (+ .def_150 |!{$(in_main#0)<k>}.next|))
(define-fun .def_152 () Int (+ .def_10 .def_151))
(define-fun .def_153 () Bool (= .def_152 0))
(define-fun .def_145 () Int (* (- 1) |!{$(in_main#0)<j>}.next|))
(define-fun .def_146 () Int (+ .def_12 .def_145))
(define-fun .def_147 () Int (+ .def_10 .def_146))
(define-fun .def_148 () Bool (= .def_147 0))
(define-fun .def_141 () Int (* (- 1) |!{$(in_main#0)<i>}.next|))
(define-fun .def_142 () Int (+ .def_10 .def_141))
(define-fun .def_143 () Bool (= .def_142 (- 1)))
(define-fun .def_144 () Bool (and .def_82 .def_143))
(define-fun .def_149 () Bool (and .def_144 .def_148))
(define-fun .def_154 () Bool (and .def_149 .def_153))
(define-fun .def_16 () Int (! |!{$(in_main#0)<l>}| :next |!{$(in_main#0)<l>}.next|))
(define-fun .def_90 () Bool (= .def_16 |!{$(in_main#0)<l>}.next|))
(define-fun .def_155 () Bool (and .def_90 .def_154))
(define-fun .def_157 () Bool (and .def_155 .def_156))
(define-fun .def_158 () Bool (and .def_131 .def_157))
(define-fun .def_159 () Bool (and .def_130 .def_158))
(define-fun .def_166 () Bool (and .def_159 .def_165))
(define-fun .def_169 () Bool (or .def_166 .def_168))
(define-fun .def_122 () Bool (= !pc.next 0))
(define-fun .def_113 () Bool (= .def_35 77))
(define-fun .def_123 () Bool (and .def_113 .def_122))
(define-fun .def_72 () Bool (<= .def_10 .def_16))
(define-fun .def_106 () Bool (and .def_72 .def_82))
(define-fun .def_107 () Bool (and .def_84 .def_106))
(define-fun .def_108 () Bool (and .def_86 .def_107))
(define-fun .def_109 () Bool (and .def_88 .def_108))
(define-fun .def_110 () Bool (and .def_90 .def_109))
(define-fun .def_111 () Bool (and .def_92 .def_110))
(define-fun .def_124 () Bool (and .def_111 .def_123))
(define-fun .def_119 () Bool (and .def_113 .def_118))
(define-fun .def_99 () Int (* (- 1) |!{$(in_main#0)<l>}.next|))
(define-fun .def_100 () Int (+ .def_16 .def_99))
(define-fun .def_101 () Bool (= .def_100 (- 1)))
(define-fun .def_102 () Bool (and .def_97 .def_101))
(define-fun .def_103 () Bool (and .def_92 .def_102))
(define-fun .def_74 () Int (select .def_18 .def_16))
(define-fun .def_75 () Bool (<= .def_14 .def_74))
(define-fun .def_76 () Int (ite .def_75 1 0))
(define-fun .def_77 () Bool (= .def_76 0))
(define-fun .def_78 () Bool (not .def_77))
(define-fun .def_104 () Bool (and .def_78 .def_103))
(define-fun .def_73 () Bool (not .def_72))
(define-fun .def_105 () Bool (and .def_73 .def_104))
(define-fun .def_120 () Bool (and .def_105 .def_119))
(define-fun .def_115 () Bool (= !pc.next 97))
(define-fun .def_116 () Bool (and .def_113 .def_115))
(define-fun .def_83 () Bool (and .def_77 .def_82))
(define-fun .def_85 () Bool (and .def_83 .def_84))
(define-fun .def_87 () Bool (and .def_85 .def_86))
(define-fun .def_89 () Bool (and .def_87 .def_88))
(define-fun .def_91 () Bool (and .def_89 .def_90))
(define-fun .def_93 () Bool (and .def_91 .def_92))
(define-fun .def_94 () Bool (and .def_73 .def_93))
(define-fun .def_117 () Bool (and .def_94 .def_116))
(define-fun .def_121 () Bool (or .def_117 .def_120))
(define-fun .def_125 () Bool (or .def_121 .def_124))
(define-fun .def_70 () Bool (and .def_38 .def_69))
(define-fun .def_65 () Bool (= |!{$(in_main#0)<a.1>}.next| |%{$(in_main#0)<a.1>}#1|))
(define-fun .def_63 () Bool (= |!{$(in_main#0)<l>}.next| |%{$(in_main#0)<l>}#1|))
(define-fun .def_61 () Bool (= |!{$(in_main#0)<k>}.next| 0))
(define-fun .def_59 () Bool (= |!{$(in_main#0)<j>}.next| 0))
(define-fun .def_57 () Bool (= |!{$(in_main#0)<i>}.next| 0))
(define-fun .def_56 () Bool (= |!{$(in_main#0)<N>}.next| |!{$(in_main#0)<$(in___VERIFIER_nondet_int#0)<h#<__VERIFIER_nondet_int.return>>>}|))
(define-fun .def_58 () Bool (and .def_56 .def_57))
(define-fun .def_60 () Bool (and .def_58 .def_59))
(define-fun .def_62 () Bool (and .def_60 .def_61))
(define-fun .def_64 () Bool (and .def_62 .def_63))
(define-fun .def_66 () Bool (and .def_64 .def_65))
(define-fun .def_51 () Bool (<= |!{$(in_main#0)<$(in___VERIFIER_nondet_int#0)<h#<__VERIFIER_nondet_int.return>>>}| 0))
(define-fun .def_52 () Bool (not .def_51))
(define-fun .def_53 () Int (ite .def_52 1 0))
(define-fun .def_54 () Bool (= .def_53 0))
(define-fun .def_55 () Bool (not .def_54))
(define-fun .def_67 () Bool (and .def_55 .def_66))
(define-fun .def_71 () Bool (and .def_67 .def_70))
(define-fun .def_126 () Bool (or .def_71 .def_125))
(define-fun .def_170 () Bool (! (or .def_126 .def_169) :trans true))
(define-fun .def_127 () Bool (= .def_35 97))
(define-fun .def_171 () Bool (! (not .def_127) :invar-property 0 :invar-property-name ||))
(assert true)
